c === Helltaker SAT solver === 
c
p cnf 106 667 
17 0 
20 0 
23 0 
26 0 
30 0 
34 0 
1 2 3 4 0 
5 6 7 8 0 
9 10 11 12 0 
13 14 15 16 0 
-1 -2 0 
-1 -3 0 
-1 -4 0 
-2 -3 0 
-2 -4 0 
-3 -4 0 
-5 -6 0 
-5 -7 0 
-5 -8 0 
-6 -7 0 
-6 -8 0 
-7 -8 0 
-9 -10 0 
-9 -11 0 
-9 -12 0 
-10 -11 0 
-10 -12 0 
-11 -12 0 
-13 -14 0 
-13 -15 0 
-13 -16 0 
-14 -15 0 
-14 -16 0 
-15 -16 0 
2 18 29 48 35 0 
2 21 23 42 38 0 
1 21 29 48 38 0 
2 24 26 45 41 0 
2 27 32 51 44 0 
6 36 47 66 53 0 
6 39 41 60 56 0 
5 39 47 66 56 0 
6 42 44 63 59 0 
6 45 50 69 62 0 
10 54 65 84 71 0 
10 57 59 78 74 0 
9 57 65 84 74 0 
10 60 62 81 77 0 
10 63 68 87 80 0 
14 72 83 102 89 0 
14 75 77 96 92 0 
13 75 83 102 92 0 
14 78 80 99 95 0 
14 81 86 105 98 0 
18 -1 -2 -3 -4 36 0 
21 -1 -2 -3 -4 39 0 
24 -1 -2 -3 -4 42 0 
27 -1 -2 -3 -4 45 0 
30 -1 -2 -3 -4 48 0 
33 -1 -2 -3 -4 51 0 
36 -5 -6 -7 -8 54 0 
39 -5 -6 -7 -8 57 0 
42 -5 -6 -7 -8 60 0 
45 -5 -6 -7 -8 63 0 
48 -5 -6 -7 -8 66 0 
51 -5 -6 -7 -8 69 0 
54 -9 -10 -11 -12 72 0 
57 -9 -10 -11 -12 75 0 
60 -9 -10 -11 -12 78 0 
63 -9 -10 -11 -12 81 0 
66 -9 -10 -11 -12 84 0 
69 -9 -10 -11 -12 87 0 
72 -13 -14 -15 -16 90 0 
75 -13 -14 -15 -16 93 0 
78 -13 -14 -15 -16 96 0 
81 -13 -14 -15 -16 99 0 
84 -13 -14 -15 -16 102 0 
87 -13 -14 -15 -16 105 0 
36 -39 0 
36 -42 0 
36 -45 0 
36 -48 0 
36 -51 0 
39 -42 0 
39 -45 0 
39 -48 0 
39 -51 0 
42 -45 0 
42 -48 0 
42 -51 0 
45 -48 0 
45 -51 0 
48 -51 0 
54 -57 0 
54 -60 0 
54 -63 0 
54 -66 0 
54 -69 0 
57 -60 0 
57 -63 0 
57 -66 0 
57 -69 0 
60 -63 0 
60 -66 0 
60 -69 0 
63 -66 0 
63 -69 0 
66 -69 0 
72 -75 0 
72 -78 0 
72 -81 0 
72 -84 0 
72 -87 0 
75 -78 0 
75 -81 0 
75 -84 0 
75 -87 0 
78 -81 0 
78 -84 0 
78 -87 0 
81 -84 0 
81 -87 0 
84 -87 0 
1 18 17 35 0 
1 21 17 35 0 
1 24 17 35 0 
1 27 17 35 0 
1 33 17 35 0 
1 18 20 38 0 
1 21 20 38 0 
1 27 20 38 0 
1 30 20 38 0 
1 33 20 38 0 
1 18 23 41 0 
1 21 23 41 0 
1 24 23 41 0 
1 30 23 41 0 
1 33 23 41 0 
1 18 26 44 0 
1 21 26 44 0 
1 24 26 44 0 
1 27 26 44 0 
1 30 26 44 0 
1 18 29 47 0 
1 24 29 47 0 
1 27 29 47 0 
1 30 29 47 0 
1 33 29 47 0 
1 18 32 50 0 
1 21 32 50 0 
1 24 32 50 0 
1 27 32 50 0 
1 30 32 50 0 
1 33 32 50 0 
5 36 35 53 0 
5 39 35 53 0 
5 42 35 53 0 
5 45 35 53 0 
5 51 35 53 0 
5 36 38 56 0 
5 39 38 56 0 
5 45 38 56 0 
5 48 38 56 0 
5 51 38 56 0 
5 36 41 59 0 
5 39 41 59 0 
5 42 41 59 0 
5 48 41 59 0 
5 51 41 59 0 
5 36 44 62 0 
5 39 44 62 0 
5 42 44 62 0 
5 45 44 62 0 
5 48 44 62 0 
5 36 47 65 0 
5 42 47 65 0 
5 45 47 65 0 
5 48 47 65 0 
5 51 47 65 0 
5 36 50 68 0 
5 39 50 68 0 
5 42 50 68 0 
5 45 50 68 0 
5 48 50 68 0 
5 51 50 68 0 
9 54 53 71 0 
9 57 53 71 0 
9 60 53 71 0 
9 63 53 71 0 
9 69 53 71 0 
9 54 56 74 0 
9 57 56 74 0 
9 63 56 74 0 
9 66 56 74 0 
9 69 56 74 0 
9 54 59 77 0 
9 57 59 77 0 
9 60 59 77 0 
9 66 59 77 0 
9 69 59 77 0 
9 54 62 80 0 
9 57 62 80 0 
9 60 62 80 0 
9 63 62 80 0 
9 66 62 80 0 
9 54 65 83 0 
9 60 65 83 0 
9 63 65 83 0 
9 66 65 83 0 
9 69 65 83 0 
9 54 68 86 0 
9 57 68 86 0 
9 60 68 86 0 
9 63 68 86 0 
9 66 68 86 0 
9 69 68 86 0 
13 72 71 89 0 
13 75 71 89 0 
13 78 71 89 0 
13 81 71 89 0 
13 87 71 89 0 
13 72 74 92 0 
13 75 74 92 0 
13 81 74 92 0 
13 84 74 92 0 
13 87 74 92 0 
13 72 77 95 0 
13 75 77 95 0 
13 78 77 95 0 
13 84 77 95 0 
13 87 77 95 0 
13 72 80 98 0 
13 75 80 98 0 
13 78 80 98 0 
13 81 80 98 0 
13 84 80 98 0 
13 72 83 101 0 
13 78 83 101 0 
13 81 83 101 0 
13 84 83 101 0 
13 87 83 101 0 
13 72 86 104 0 
13 75 86 104 0 
13 78 86 104 0 
13 81 86 104 0 
13 84 86 104 0 
13 87 86 104 0 
2 18 17 35 0 
2 21 17 35 0 
2 24 17 35 0 
2 27 17 35 0 
2 30 17 35 0 
2 33 17 35 0 
2 18 20 38 0 
2 21 20 38 0 
2 24 20 38 0 
2 27 20 38 0 
2 33 20 38 0 
2 18 23 41 0 
2 24 23 41 0 
2 27 23 41 0 
2 30 23 41 0 
2 33 23 41 0 
2 18 26 44 0 
2 21 26 44 0 
2 27 26 44 0 
2 30 26 44 0 
2 33 26 44 0 
2 21 29 47 0 
2 24 29 47 0 
2 27 29 47 0 
2 30 29 47 0 
2 33 29 47 0 
2 18 32 50 0 
2 21 32 50 0 
2 24 32 50 0 
2 30 32 50 0 
2 33 32 50 0 
6 36 35 53 0 
6 39 35 53 0 
6 42 35 53 0 
6 45 35 53 0 
6 48 35 53 0 
6 51 35 53 0 
6 36 38 56 0 
6 39 38 56 0 
6 42 38 56 0 
6 45 38 56 0 
6 51 38 56 0 
6 36 41 59 0 
6 42 41 59 0 
6 45 41 59 0 
6 48 41 59 0 
6 51 41 59 0 
6 36 44 62 0 
6 39 44 62 0 
6 45 44 62 0 
6 48 44 62 0 
6 51 44 62 0 
6 39 47 65 0 
6 42 47 65 0 
6 45 47 65 0 
6 48 47 65 0 
6 51 47 65 0 
6 36 50 68 0 
6 39 50 68 0 
6 42 50 68 0 
6 48 50 68 0 
6 51 50 68 0 
10 54 53 71 0 
10 57 53 71 0 
10 60 53 71 0 
10 63 53 71 0 
10 66 53 71 0 
10 69 53 71 0 
10 54 56 74 0 
10 57 56 74 0 
10 60 56 74 0 
10 63 56 74 0 
10 69 56 74 0 
10 54 59 77 0 
10 60 59 77 0 
10 63 59 77 0 
10 66 59 77 0 
10 69 59 77 0 
10 54 62 80 0 
10 57 62 80 0 
10 63 62 80 0 
10 66 62 80 0 
10 69 62 80 0 
10 57 65 83 0 
10 60 65 83 0 
10 63 65 83 0 
10 66 65 83 0 
10 69 65 83 0 
10 54 68 86 0 
10 57 68 86 0 
10 60 68 86 0 
10 66 68 86 0 
10 69 68 86 0 
14 72 71 89 0 
14 75 71 89 0 
14 78 71 89 0 
14 81 71 89 0 
14 84 71 89 0 
14 87 71 89 0 
14 72 74 92 0 
14 75 74 92 0 
14 78 74 92 0 
14 81 74 92 0 
14 87 74 92 0 
14 72 77 95 0 
14 78 77 95 0 
14 81 77 95 0 
14 84 77 95 0 
14 87 77 95 0 
14 72 80 98 0 
14 75 80 98 0 
14 81 80 98 0 
14 84 80 98 0 
14 87 80 98 0 
14 75 83 101 0 
14 78 83 101 0 
14 81 83 101 0 
14 84 83 101 0 
14 87 83 101 0 
14 72 86 104 0 
14 75 86 104 0 
14 78 86 104 0 
14 84 86 104 0 
14 87 86 104 0 
3 18 17 35 0 
3 21 17 35 0 
3 24 17 35 0 
3 27 17 35 0 
3 30 17 35 0 
3 33 17 35 0 
3 18 20 38 0 
3 21 20 38 0 
3 24 20 38 0 
3 27 20 38 0 
3 30 20 38 0 
3 33 20 38 0 
3 18 23 41 0 
3 21 23 41 0 
3 24 23 41 0 
3 27 23 41 0 
3 30 23 41 0 
3 33 23 41 0 
3 18 26 44 0 
3 21 26 44 0 
3 24 26 44 0 
3 27 26 44 0 
3 30 26 44 0 
3 33 26 44 0 
3 18 29 47 0 
3 21 29 47 0 
3 24 29 47 0 
3 27 29 47 0 
3 30 29 47 0 
3 33 29 47 0 
3 18 32 50 0 
3 21 32 50 0 
3 24 32 50 0 
3 27 32 50 0 
3 30 32 50 0 
3 33 32 50 0 
7 36 35 53 0 
7 39 35 53 0 
7 42 35 53 0 
7 45 35 53 0 
7 48 35 53 0 
7 51 35 53 0 
7 36 38 56 0 
7 39 38 56 0 
7 42 38 56 0 
7 45 38 56 0 
7 48 38 56 0 
7 51 38 56 0 
7 36 41 59 0 
7 39 41 59 0 
7 42 41 59 0 
7 45 41 59 0 
7 48 41 59 0 
7 51 41 59 0 
7 36 44 62 0 
7 39 44 62 0 
7 42 44 62 0 
7 45 44 62 0 
7 48 44 62 0 
7 51 44 62 0 
7 36 47 65 0 
7 39 47 65 0 
7 42 47 65 0 
7 45 47 65 0 
7 48 47 65 0 
7 51 47 65 0 
7 36 50 68 0 
7 39 50 68 0 
7 42 50 68 0 
7 45 50 68 0 
7 48 50 68 0 
7 51 50 68 0 
11 54 53 71 0 
11 57 53 71 0 
11 60 53 71 0 
11 63 53 71 0 
11 66 53 71 0 
11 69 53 71 0 
11 54 56 74 0 
11 57 56 74 0 
11 60 56 74 0 
11 63 56 74 0 
11 66 56 74 0 
11 69 56 74 0 
11 54 59 77 0 
11 57 59 77 0 
11 60 59 77 0 
11 63 59 77 0 
11 66 59 77 0 
11 69 59 77 0 
11 54 62 80 0 
11 57 62 80 0 
11 60 62 80 0 
11 63 62 80 0 
11 66 62 80 0 
11 69 62 80 0 
11 54 65 83 0 
11 57 65 83 0 
11 60 65 83 0 
11 63 65 83 0 
11 66 65 83 0 
11 69 65 83 0 
11 54 68 86 0 
11 57 68 86 0 
11 60 68 86 0 
11 63 68 86 0 
11 66 68 86 0 
11 69 68 86 0 
15 72 71 89 0 
15 75 71 89 0 
15 78 71 89 0 
15 81 71 89 0 
15 84 71 89 0 
15 87 71 89 0 
15 72 74 92 0 
15 75 74 92 0 
15 78 74 92 0 
15 81 74 92 0 
15 84 74 92 0 
15 87 74 92 0 
15 72 77 95 0 
15 75 77 95 0 
15 78 77 95 0 
15 81 77 95 0 
15 84 77 95 0 
15 87 77 95 0 
15 72 80 98 0 
15 75 80 98 0 
15 78 80 98 0 
15 81 80 98 0 
15 84 80 98 0 
15 87 80 98 0 
15 72 83 101 0 
15 75 83 101 0 
15 78 83 101 0 
15 81 83 101 0 
15 84 83 101 0 
15 87 83 101 0 
15 72 86 104 0 
15 75 86 104 0 
15 78 86 104 0 
15 81 86 104 0 
15 84 86 104 0 
15 87 86 104 0 
4 18 17 35 0 
4 21 17 35 0 
4 24 17 35 0 
4 27 17 35 0 
4 30 17 35 0 
4 33 17 35 0 
4 18 20 38 0 
4 21 20 38 0 
4 24 20 38 0 
4 27 20 38 0 
4 30 20 38 0 
4 33 20 38 0 
4 18 23 41 0 
4 21 23 41 0 
4 24 23 41 0 
4 27 23 41 0 
4 30 23 41 0 
4 33 23 41 0 
4 18 26 44 0 
4 21 26 44 0 
4 24 26 44 0 
4 27 26 44 0 
4 30 26 44 0 
4 33 26 44 0 
4 18 29 47 0 
4 21 29 47 0 
4 24 29 47 0 
4 27 29 47 0 
4 30 29 47 0 
4 33 29 47 0 
4 18 32 50 0 
4 21 32 50 0 
4 24 32 50 0 
4 27 32 50 0 
4 30 32 50 0 
4 33 32 50 0 
8 36 35 53 0 
8 39 35 53 0 
8 42 35 53 0 
8 45 35 53 0 
8 48 35 53 0 
8 51 35 53 0 
8 36 38 56 0 
8 39 38 56 0 
8 42 38 56 0 
8 45 38 56 0 
8 48 38 56 0 
8 51 38 56 0 
8 36 41 59 0 
8 39 41 59 0 
8 42 41 59 0 
8 45 41 59 0 
8 48 41 59 0 
8 51 41 59 0 
8 36 44 62 0 
8 39 44 62 0 
8 42 44 62 0 
8 45 44 62 0 
8 48 44 62 0 
8 51 44 62 0 
8 36 47 65 0 
8 39 47 65 0 
8 42 47 65 0 
8 45 47 65 0 
8 48 47 65 0 
8 51 47 65 0 
8 36 50 68 0 
8 39 50 68 0 
8 42 50 68 0 
8 45 50 68 0 
8 48 50 68 0 
8 51 50 68 0 
12 54 53 71 0 
12 57 53 71 0 
12 60 53 71 0 
12 63 53 71 0 
12 66 53 71 0 
12 69 53 71 0 
12 54 56 74 0 
12 57 56 74 0 
12 60 56 74 0 
12 63 56 74 0 
12 66 56 74 0 
12 69 56 74 0 
12 54 59 77 0 
12 57 59 77 0 
12 60 59 77 0 
12 63 59 77 0 
12 66 59 77 0 
12 69 59 77 0 
12 54 62 80 0 
12 57 62 80 0 
12 60 62 80 0 
12 63 62 80 0 
12 66 62 80 0 
12 69 62 80 0 
12 54 65 83 0 
12 57 65 83 0 
12 60 65 83 0 
12 63 65 83 0 
12 66 65 83 0 
12 69 65 83 0 
12 54 68 86 0 
12 57 68 86 0 
12 60 68 86 0 
12 63 68 86 0 
12 66 68 86 0 
12 69 68 86 0 
16 72 71 89 0 
16 75 71 89 0 
16 78 71 89 0 
16 81 71 89 0 
16 84 71 89 0 
16 87 71 89 0 
16 72 74 92 0 
16 75 74 92 0 
16 78 74 92 0 
16 81 74 92 0 
16 84 74 92 0 
16 87 74 92 0 
16 72 77 95 0 
16 75 77 95 0 
16 78 77 95 0 
16 81 77 95 0 
16 84 77 95 0 
16 87 77 95 0 
16 72 80 98 0 
16 75 80 98 0 
16 78 80 98 0 
16 81 80 98 0 
16 84 80 98 0 
16 87 80 98 0 
16 72 83 101 0 
16 75 83 101 0 
16 78 83 101 0 
16 81 83 101 0 
16 84 83 101 0 
16 87 83 101 0 
16 72 86 104 0 
16 75 86 104 0 
16 78 86 104 0 
16 81 86 104 0 
16 84 86 104 0 
16 87 86 104 0 
34 0 
52 0 
70 0 
88 0 
27 34 0 
45 52 0 
63 70 0 
81 88 0 
